\* Problem: Unknown *\

Maximize
 obj: + xp_0_0 + xp_0_1 + xp_0_2 + xp_0_3 + xp_0_4 + xp_0_5 + xp_0_6
 + xp_1_0 + xp_1_1 + xp_1_2 + xp_2_0 + xp_2_1 + xp_2_2 + xp_2_3 + xp_3_0
 + xp_3_1 + xp_3_2 + xp_4_0 + xp_5_0 + xp_5_1 + xp_5_2 + xp_6_0 + xp_6_1
 + xp_7_0 + xp_7_1 + xp_8_0 + xp_8_1 + xp_9_0 + xp_10_0 + xp_10_1
 + xp_11_0 + xp_11_1 + xp_11_2 + xp_11_3 + xp_12_0 + xp_13_0 + xp_13_1
 + xp_14_0 + xp_14_1 + xp_15_0 + xp_16_0 + xp_17_0 + xp_17_1 + xp_17_2
 + xp_17_3 + xp_18_0 + xp_18_1 + xp_18_2 + xp_18_3 + xp_18_4 + xp_19_0
 + xp_19_1 + xp_19_2 + xp_20_0 + xp_20_1 + xp_20_2 + xp_20_3 + xp_21_0
 + xp_21_1 + xp_21_2 + xp_21_3 + xp_21_4 + xp_22_0 + xp_22_1 + xp_22_2
 + xp_22_3 + xp_22_4 + xp_23_0 + xp_23_1 + xp_23_2 + xp_23_3

Subject To
 r_1: 0 xp_0_0 <= 26.1838588989845
 r_2: + xp_18_4 + xp_5_1 + xp_2_3 + xp_0_5 <= 25.9391100702576
 r_3: + xp_21_4 + xp_18_2 <= 26.7924528301887
 r_4: + xp_18_3 + xp_15_0 <= 27.6367006487488
 r_5: + xp_18_0 <= 25.6427184466019
 r_6: + xp_18_1 <= 26.5090230242688
 r_7: + xp_20_3 <= 26.1838588989845
 r_8: + xp_22_4 + xp_11_3 + xp_5_2 + xp_3_2 + xp_2_1 <= 25.9391100702576
 r_9: + xp_23_2 + xp_11_1 + xp_6_1 + xp_3_1 <= 26.7924528301887
 r_10: + xp_17_2 + xp_3_0 <= 27.6367006487488
 r_11: + xp_18_1 + xp_11_2 <= 25.6427184466019
 r_12: + xp_11_0 <= 26.5090230242688
 r_13: 0 xp_0_0 <= 27.941473259334
 r_14: + xp_21_2 + xp_14_0 + xp_0_3 + xp_0_1 <= 25.9391100702576
 r_15: + xp_21_0 + xp_19_2 <= 26.7924528301887
 r_16: + xp_22_2 + xp_21_1 + xp_0_4 + xp_0_2 <= 27.1553784860558
 r_17: + xp_0_0 <= 25.6427184466019
 r_18: + xp_21_4 + xp_4_0 + xp_0_5 <= 26.1838588989845
 r_19: + xp_19_0 <= 26.1838588989845
 r_20: + xp_21_3 + xp_19_1 + xp_14_1 + xp_0_6 <= 27.941473259334
 r_21: + xp_20_1 <= 25.9391100702576
 r_22: + xp_21_2 + xp_7_1 <= 26.7924528301887
 r_23: + xp_22_4 + xp_22_3 + xp_17_3 <= 27.1553784860558
 r_24: + xp_23_3 + xp_3_2 + xp_0_3 <= 26.9620253164557
 r_25: 0 xp_0_0 <= 27.941473259334
 r_26: + xp_18_4 + xp_0_6 + xp_0_5 + xp_0_1 <= 25.6427184466019
 r_27: + xp_11_3 <= 25.9391100702576
 r_28: + xp_10_1 <= 25.9391100702576
 r_29: + xp_20_2 <= 26.7924528301887
 r_30: + xp_2_0 <= 26.7924528301887
 r_31: + xp_23_2 + xp_18_2 + xp_6_1 + xp_3_1 <= 26.9620253164557
 r_32: + xp_2_2 <= 27.941473259334
 r_33: + xp_11_1 + xp_2_3 <= 26.7924528301887
 r_34: + xp_19_2 + xp_2_1 <= 26.7924528301887
 r_35: 0 xp_0_0 <= 27.1553784860558
 r_36: + xp_9_0 <= 27.1553784860558
 r_37: + xp_21_1 + xp_13_1 + xp_8_1 + xp_1_2 <= 26.9620253164557
 r_38: + xp_1_1 + xp_0_4 <= 28.7484662576687
 r_39: + xp_17_3 + xp_17_1 <= 27.6367006487488
 r_40: + xp_0_2 <= 25.6427184466019
 r_41: + xp_12_0 <= 26.9620253164557
 r_42: + xp_21_1 <= 26.9620253164557
 r_43: + xp_16_0 <= 26.9620253164557
 r_44: + xp_23_3 + xp_23_2 + xp_23_1 + xp_1_2 <= 28.7484662576687
 r_45: + xp_3_2 + xp_3_1 <= 27.6367006487488
 r_46: + xp_18_2 + xp_0_3 <= 25.6427184466019
 r_47: + xp_22_1 + xp_13_1 <= 28.7484662576687
 r_48: + xp_13_0 <= 28.7484662576687
 r_49: 0 xp_0_0 <= 27.6367006487488
 r_50: + xp_0_4 <= 25.6427184466019
 r_51: + xp_8_1 + xp_1_2 + xp_1_1 <= 27.6367006487488
 r_52: + xp_8_0 <= 27.6367006487488
 r_53: + xp_1_0 <= 27.6367006487488
 r_54: + xp_18_3 <= 25.6427184466019
 r_55: 0 xp_0_0 <= 27.6367006487488
 r_56: 0 xp_0_0 <= 27.6367006487488
 r_57: + xp_22_2 <= 25.6427184466019
 r_58: + xp_23_3 + xp_22_3 + xp_17_3 + xp_5_0 <= 25.6427184466019
 r_59: + xp_22_0 + xp_17_1 <= 25.6427184466019
 r_60: + xp_23_1 + xp_6_0 <= 25.6427184466019
 r_61: + xp_23_0 + xp_22_1 <= 25.6427184466019
 r_62: + xp_17_0 <= 25.6427184466019
 r_63: + xp_11_2 + xp_5_1 <= 25.6427184466019
 r_64: + xp_23_2 + xp_22_4 + xp_17_2 + xp_6_1 + xp_5_2
 <= 25.6427184466019
 r_65: + xp_20_1 + xp_14_1 + xp_10_1 + xp_7_1 + xp_2_2 + xp_0_6
 <= 27.941473259334
 r_66: + xp_21_3 + xp_20_2 + xp_7_0 <= 27.941473259334
 r_67: + xp_20_3 + xp_19_1 + xp_10_0 <= 27.941473259334
 r_68: + xp_20_0 <= 27.941473259334

Bounds
 0 <= xp_0_0 <= 28.0373968062205
 0 <= xp_0_1 <= 5.80773835158487
 0 <= xp_0_2 <= 13.3377950727814
 0 <= xp_0_3 <= 7.16954501224261
 0 <= xp_0_4 <= 4.44593169092713
 0 <= xp_0_5 <= 1.36180666065774
 0 <= xp_0_6 <= 1.36180666065774
 0 <= xp_1_0 <= 21.668893090459
 0 <= xp_1_1 <= 11.4819742663546
 0 <= xp_1_2 <= 1.29505544225016
 0 <= xp_2_0 <= 20.2136240537946
 0 <= xp_2_1 <= 4.44593169092713
 0 <= xp_2_2 <= 1.21494864504304
 0 <= xp_2_3 <= 8.09077762605624
 0 <= xp_3_0 <= 20.2269707407308
 0 <= xp_3_1 <= 9.70627804086167
 0 <= xp_3_2 <= 1.62882931801483
 0 <= xp_4_0 <= 25.63417510628
 0 <= xp_5_0 <= 17.0894500708533
 0 <= xp_5_1 <= 4.27236251771333
 0 <= xp_5_2 <= 4.27236251771333
 0 <= xp_6_0 <= 19.22563132971
 0 <= xp_6_1 <= 3.845126265942
 0 <= xp_7_0 <= 18.4245633576387
 0 <= xp_7_1 <= 3.68491267152775
 0 <= xp_8_0 <= 16.5554047561392
 0 <= xp_8_1 <= 3.31108095122783
 0 <= xp_9_0 <= 18.4245633576387
 0 <= xp_10_0 <= 15.3538027980323
 0 <= xp_10_1 <= 3.07076055960646
 0 <= xp_11_0 <= 26.6755901455628
 0 <= xp_11_1 <= 6.10145438281428
 0 <= xp_11_2 <= 18.6114881096521
 0 <= xp_11_3 <= 6.92921572875786
 0 <= xp_12_0 <= 17.303068196739
 0 <= xp_13_0 <= 14.0186895112469
 0 <= xp_13_1 <= 2.80373790224937
 0 <= xp_14_0 <= 10.6809062942833
 0 <= xp_14_1 <= 5.34045314714167
 0 <= xp_15_0 <= 15.8611458470107
 0 <= xp_16_0 <= 15.2202914693537
 0 <= xp_17_0 <= 29.6528883291626
 0 <= xp_17_1 <= 8.93189455079936
 0 <= xp_17_2 <= 2.97729818359979
 0 <= xp_17_3 <= 2.97729818359979
 0 <= xp_18_0 <= 24.8865294494069
 0 <= xp_18_1 <= 2.65687099477129
 0 <= xp_18_2 <= 4.44593169092713
 0 <= xp_18_3 <= 5.31374198954258
 0 <= xp_18_4 <= 5.31374198954258
 0 <= xp_19_0 <= 29.2523543431269
 0 <= xp_19_1 <= 7.73029259269249
 0 <= xp_19_2 <= 5.15352839512833
 0 <= xp_20_0 <= 27.1161641924069
 0 <= xp_20_1 <= 9.33243742869837
 0 <= xp_20_2 <= 2.44325286888562
 0 <= xp_20_3 <= 2.44325286888562
 0 <= xp_21_0 <= 22.0827826552942
 0 <= xp_21_1 <= 8.74498758251279
 0 <= xp_21_2 <= 2.14952794579283
 0 <= xp_21_3 <= 4.44593169092713
 0 <= xp_21_4 <= 2.14952794579283
 0 <= xp_22_0 <= 18.9853109380886
 0 <= xp_22_1 <= 6.32843697936287
 0 <= xp_22_2 <= 1.88250528843575
 0 <= xp_22_3 <= 4.44593169092713
 0 <= xp_22_4 <= 6.32843697936287
 0 <= xp_23_0 <= 23.4312426290158
 0 <= xp_23_1 <= 10.77436867029
 0 <= xp_23_2 <= 1.88250528843575
 0 <= xp_23_3 <= 1.88250528843575

End
